
Gurobi 6.0.4 (win64) logging started 06/16/15 10:57:27

Read LP format model from file E:\Eigene Dateien\Downloads\Michi shit\VRPTWMS-master\VRPTWMS\instances\mip\fuel\N8-C_DV100-C_SV25_F5_4_No_1.lp
Reading time = 0.00 seconds
(null): 417 rows, 208 columns, 1715 nonzeros
Optimize a model with 417 rows, 208 columns and 1715 nonzeros
Model has 576 quadratic constraints
WARNING: Only barrier available for SOCP models
Coefficient statistics:
  Matrix range    [1e+00, 1e+06]
  Objective range [4e+04, 1e+07]
  Bounds range    [1e+00, 1e+06]
  RHS range       [1e+00, 1e+06]
Presolve removed 36 rows and 17 columns
Presolve time: 0.03s
Presolved: 1409 rows, 731 columns, 6869 nonzeros
Variable types: 488 continuous, 243 integer (200 binary)
Found heuristic solution: objective 8.296440e+07
Optimize a model with 1409 rows, 731 columns and 6869 nonzeros
Coefficient statistics:
  Matrix range    [1e+00, 1e+06]
  Objective range [4e+04, 1e+07]
  Bounds range    [1e+00, 1e+06]
  RHS range       [1e+00, 1e+06]

Concurrent LP optimizer: dual simplex and barrier
Showing barrier log only...

Presolve removed 146 rows and 97 columns
Presolved: 1263 rows, 634 columns, 6212 nonzeros

Root barrier log...

Ordering time: 0.02s

Barrier performed 0 iterations in 0.06 seconds
Barrier solve interrupted - model solved by another algorithm


Solved with dual simplex
Solved in 62 iterations and 0.06 seconds
Optimal objective  1.847823876e+06

Root relaxation: objective 1.847824e+06, 62 iterations, 0.03 seconds

    Nodes    |    Current Node    |     Objective Bounds      |     Work
 Expl Unexpl |  Obj  Depth IntInf | Incumbent    BestBd   Gap | It/Node Time

     0     0 1847823.88    0   25 8.2964e+07 1847823.88  97.8%     -    0s
H    0     0                    7.257200e+07 1847823.88  97.5%     -    0s
     0     0 1912348.16    0   34 7.2572e+07 1912348.16  97.4%     -    0s
     0     0 1967948.92    0   25 7.2572e+07 1967948.92  97.3%     -    0s
     0     0 2031453.94    0   33 7.2572e+07 2031453.94  97.2%     -    0s
     0     0 2070123.92    0   45 7.2572e+07 2070123.92  97.1%     -    0s
H    0     0                    5.437120e+07 2070123.92  96.2%     -    0s
H    0     0                    3.322980e+07 2070123.92  93.8%     -    0s
     0     0 2094634.56    0   38 3.3230e+07 2094634.56  93.7%     -    0s
     0     0 2129935.04    0   35 3.3230e+07 2129935.04  93.6%     -    0s
     0     0 2181580.31    0   34 3.3230e+07 2181580.31  93.4%     -    0s
     0     0 2181580.31    0   34 3.3230e+07 2181580.31  93.4%     -    0s
     0     0 2181580.31    0   29 3.3230e+07 2181580.31  93.4%     -    0s
     0     2 2181580.31    0   28 3.3230e+07 2181580.31  93.4%     -    0s
H  100    83                    3.190570e+07 1.1655e+07  63.5%  22.2    0s
  8723  1709 2.3661e+07   38   42 3.1906e+07 2.2033e+07  30.9%  16.3    5s
 17827  3696     cutoff   46      3.1906e+07 2.2551e+07  29.3%  32.7   10s
 20608  3818 2.2700e+07   25   17 3.1906e+07 2.2700e+07  28.9%  36.3   15s
 26146  3880     cutoff   39      3.1906e+07 2.2700e+07  28.9%  38.6   20s
 32675  2595 2.2700e+07   33   29 3.1906e+07 2.2700e+07  28.9%  43.1   25s
 38220  2468 2.7877e+07   39   35 3.1906e+07 2.2934e+07  28.1%  46.5   30s
 44289  1205     cutoff   33      3.1906e+07 2.3651e+07  25.9%  50.2   35s

Cutting planes:
  Gomory: 4
  Cover: 1
  Implied bound: 6
  Clique: 3
  MIR: 2
  Flow cover: 3
  GUB cover: 2
  Zero half: 12

Explored 46079 nodes (2528938 simplex iterations) in 36.39 seconds
Thread count was 4 (of 4 available processors)

Optimal solution found (tolerance 1.00e-04)
Best objective 3.190570000000e+07, best bound 3.190570000000e+07, gap 0.0%
k_c1	980000.0
k_c2	90000.0
k_c3	1000000.0
k_c4	120000.0
k_c5	980000.0
k_c6	930000.0
k_c7	1000000.0
k_c8	920000.0
k_dN	0.0
o_1	0.0
o_2	0.0
o_3	0.0
o_4	0.0
o_5	0.0
o_6	0.0
o_7	0.0
o_8	0.0
p_1	0.0
p_2	0.0
p_3	0.0
p_4	0.0
p_5	0.0
p_6	0.0
p_7	0.0
p_8	0.0
phi_c1	26406.0
phi_c2	2990.0
phi_c3	44287.0
phi_c4	12356.0
phi_c5	27763.0
phi_c6	22478.0
phi_c7	33885.0
phi_c8	10450.0
phi_dN	0.0
pi_c1	250000.0
pi_c2	250000.0
pi_c3	250000.0
pi_c4	250000.0
pi_c5	250000.0
pi_c6	250000.0
pi_c7	250000.0
pi_c8	250000.0
pi_dN	0.0
tauD_c1	450000.0
tauD_c2	725000.0
tauD_c3	700000.0
tauD_c4	650000.0
tauD_c5	811750.0
tauD_c6	582175.0
tauD_c7	250000.0
tauD_c8	755300.0
tauD_d0	0.0
tauD_dN	1000000.0
tauS_c1	149825.0
tauS_c2	829875.0
tauS_c3	819699.0
tauS_c4	799825.0
tauS_c5	0.0
tauS_c6	788300.0
tauS_c7	790050.0
tauS_c8	802000.0
tauS_d0	0.0
tauS_dN	700.0
x_c1_c8	1.0
x_c2_dN	1.0
x_c3_c5	1.0
x_c4_c2	1.0
x_c5_dN	1.0
x_c6_c4	1.0
x_c7_c1	1.0
x_c8_dN	1.0
x_d0_c3	1.0
x_d0_c6	1.0
x_d0_c7	1.0
